c User generated cnf file
p cnf 8 44
2 -1 5 0 
2 -1 7 0 
8 1 -2 0 
8 8 -4 0 
1 -4 8 0 
6 2 -6 0 
5 -7 5 0 
3 -7 7 0 
5 -4 4 0 
6 -4 2 0 
8 6 -8 0 
3 3 -4 0 
4 -4 5 0 
8 -2 4 0 
3 7 -5 0 
7 8 -8 0 
5 3 -5 0 
7 5 -8 0 
5 8 -2 0 
7 -7 2 0 
8 -8 6 0 
3 2 -4 0 
5 8 -4 0 
3 5 -5 0 
1 7 -6 0 
7 -3 1 0 
6 -5 4 0 
6 -2 4 0 
5 8 -7 0 
4 -7 2 0 
6 -2 2 0 
1 -1 5 0 
8 1 -5 0 
8 -8 6 0 
5 -5 4 0 
4 -7 8 0 
2 8 -8 0 
3 8 -4 0 
5 8 -3 0 
3 -3 1 0 
4 -6 3 0 
4 -8 3 0 
7 -3 7 0 
1 2 -5 0 
